(set-logic HORN)
(set-info :source |
    Benchmark: C_VC
    Output by Princess (http://www.philipp.ruemmer.org/princess.shtml)
|)
(set-info :status sat)
(declare-fun inv_main3 (Int Int) Bool)
(declare-fun inv_main4 (Int Int) Bool)
(declare-fun inv_main5 (Int Int) Bool)
(assert (forall ((var0 Int)) (inv_main3 var0 0)))
(assert (forall ((var0 Int) (var1 Int)) (or (not (and (inv_main5 var1 var0) (not (<= 0 (+ 8 (* (- 1) var1)))))) (inv_main4 var1 var0))))
(assert (forall ((var0 Int) (var1 Int)) (or (not (inv_main3 var1 var0)) (inv_main5 1 var0))))
(assert (forall ((var0 Int) (var1 Int)) (or (not (and (inv_main5 var1 var0) (<= 0 (+ 8 (* (- 1) var1))))) (inv_main5 (+ var1 1) (+ var0 2)))))
(assert (forall ((var0 Int) (var1 Int)) (not (and (inv_main4 var1 var0) (and (not (= var0 16)) (not (= var0 0)))))))
(check-sat)
